c description: Graph pigeonhole principle formula on fast_gnp_random_graph(10,25,0.9)
c generator: CNFgen (0.9.0)
c copyright: (C) 2012-2020 Massimo Lauria <massimo.lauria@uniroma1.it>
c url: https://massimolauria.net/cnfgen
c
p cnf 234 997
1 2 3 4 5 6 7 8 9 10 11 12 13 14 15 16 17 18 19 20 21 22 23 24 0
25 26 27 28 29 30 31 32 33 34 35 36 37 38 39 40 41 42 43 44 45 46 0
47 48 49 50 51 52 53 54 55 56 57 58 59 60 61 62 63 64 65 66 67 68 0
69 70 71 72 73 74 75 76 77 78 79 80 81 82 83 84 85 86 87 88 89 90 0
91 92 93 94 95 96 97 98 99 100 101 102 103 104 105 106 107 108 109 110 111 112 113 114 0
115 116 117 118 119 120 121 122 123 124 125 126 127 128 129 130 131 132 133 134 135 136 137 0
138 139 140 141 142 143 144 145 146 147 148 149 150 151 152 153 154 155 156 157 158 159 160 161 0
162 163 164 165 166 167 168 169 170 171 172 173 174 175 176 177 178 179 180 181 182 183 184 0
185 186 187 188 189 190 191 192 193 194 195 196 197 198 199 200 201 202 203 204 205 206 207 208 209 0
210 211 212 213 214 215 216 217 218 219 220 221 222 223 224 225 226 227 228 229 230 231 232 233 234 0
-1 -47 0
-1 -69 0
-1 -91 0
-1 -115 0
-1 -138 0
-1 -162 0
-1 -185 0
-1 -210 0
-47 -69 0
-47 -91 0
-47 -115 0
-47 -138 0
-47 -162 0
-47 -185 0
-47 -210 0
-69 -91 0
-69 -115 0
-69 -138 0
-69 -162 0
-69 -185 0
-69 -210 0
-91 -115 0
-91 -138 0
-91 -162 0
-91 -185 0
-91 -210 0
-115 -138 0
-115 -162 0
-115 -185 0
-115 -210 0
-138 -162 0
-138 -185 0
-138 -210 0
-162 -185 0
-162 -210 0
-185 -210 0
-2 -25 0
-2 -92 0
-2 -116 0
-2 -139 0
-2 -163 0
-2 -186 0
-2 -211 0
-25 -92 0
-25 -116 0
-25 -139 0
-25 -163 0
-25 -186 0
-25 -211 0
-92 -116 0
-92 -139 0
-92 -163 0
-92 -186 0
-92 -211 0
-116 -139 0
-116 -163 0
-116 -186 0
-116 -211 0
-139 -163 0
-139 -186 0
-139 -211 0
-163 -186 0
-163 -211 0
-186 -211 0
-3 -26 0
-3 -48 0
-3 -70 0
-3 -93 0
-3 -140 0
-3 -164 0
-3 -187 0
-3 -212 0
-26 -48 0
-26 -70 0
-26 -93 0
-26 -140 0
-26 -164 0
-26 -187 0
-26 -212 0
-48 -70 0
-48 -93 0
-48 -140 0
-48 -164 0
-48 -187 0
-48 -212 0
-70 -93 0
-70 -140 0
-70 -164 0
-70 -187 0
-70 -212 0
-93 -140 0
-93 -164 0
-93 -187 0
-93 -212 0
-140 -164 0
-140 -187 0
-140 -212 0
-164 -187 0
-164 -212 0
-187 -212 0
-4 -27 0
-4 -49 0
-4 -71 0
-4 -94 0
-4 -117 0
-4 -141 0
-4 -165 0
-4 -188 0
-4 -213 0
-27 -49 0
-27 -71 0
-27 -94 0
-27 -117 0
-27 -141 0
-27 -165 0
-27 -188 0
-27 -213 0
-49 -71 0
-49 -94 0
-49 -117 0
-49 -141 0
-49 -165 0
-49 -188 0
-49 -213 0
-71 -94 0
-71 -117 0
-71 -141 0
-71 -165 0
-71 -188 0
-71 -213 0
-94 -117 0
-94 -141 0
-94 -165 0
-94 -188 0
-94 -213 0
-117 -141 0
-117 -165 0
-117 -188 0
-117 -213 0
-141 -165 0
-141 -188 0
-141 -213 0
-165 -188 0
-165 -213 0
-188 -213 0
-5 -28 0
-5 -50 0
-5 -72 0
-5 -95 0
-5 -118 0
-5 -142 0
-5 -166 0
-5 -189 0
-5 -214 0
-28 -50 0
-28 -72 0
-28 -95 0
-28 -118 0
-28 -142 0
-28 -166 0
-28 -189 0
-28 -214 0
-50 -72 0
-50 -95 0
-50 -118 0
-50 -142 0
-50 -166 0
-50 -189 0
-50 -214 0
-72 -95 0
-72 -118 0
-72 -142 0
-72 -166 0
-72 -189 0
-72 -214 0
-95 -118 0
-95 -142 0
-95 -166 0
-95 -189 0
-95 -214 0
-118 -142 0
-118 -166 0
-118 -189 0
-118 -214 0
-142 -166 0
-142 -189 0
-142 -214 0
-166 -189 0
-166 -214 0
-189 -214 0
-6 -29 0
-6 -51 0
-6 -73 0
-6 -96 0
-6 -119 0
-6 -143 0
-6 -167 0
-6 -190 0
-6 -215 0
-29 -51 0
-29 -73 0
-29 -96 0
-29 -119 0
-29 -143 0
-29 -167 0
-29 -190 0
-29 -215 0
-51 -73 0
-51 -96 0
-51 -119 0
-51 -143 0
-51 -167 0
-51 -190 0
-51 -215 0
-73 -96 0
-73 -119 0
-73 -143 0
-73 -167 0
-73 -190 0
-73 -215 0
-96 -119 0
-96 -143 0
-96 -167 0
-96 -190 0
-96 -215 0
-119 -143 0
-119 -167 0
-119 -190 0
-119 -215 0
-143 -167 0
-143 -190 0
-143 -215 0
-167 -190 0
-167 -215 0
-190 -215 0
-7 -30 0
-7 -52 0
-7 -97 0
-7 -120 0
-7 -144 0
-7 -168 0
-7 -191 0
-7 -216 0
-30 -52 0
-30 -97 0
-30 -120 0
-30 -144 0
-30 -168 0
-30 -191 0
-30 -216 0
-52 -97 0
-52 -120 0
-52 -144 0
-52 -168 0
-52 -191 0
-52 -216 0
-97 -120 0
-97 -144 0
-97 -168 0
-97 -191 0
-97 -216 0
-120 -144 0
-120 -168 0
-120 -191 0
-120 -216 0
-144 -168 0
-144 -191 0
-144 -216 0
-168 -191 0
-168 -216 0
-191 -216 0
-8 -53 0
-8 -74 0
-8 -98 0
-8 -145 0
-8 -169 0
-8 -192 0
-8 -217 0
-53 -74 0
-53 -98 0
-53 -145 0
-53 -169 0
-53 -192 0
-53 -217 0
-74 -98 0
-74 -145 0
-74 -169 0
-74 -192 0
-74 -217 0
-98 -145 0
-98 -169 0
-98 -192 0
-98 -217 0
-145 -169 0
-145 -192 0
-145 -217 0
-169 -192 0
-169 -217 0
-192 -217 0
-9 -75 0
-9 -99 0
-9 -121 0
-9 -146 0
-9 -193 0
-9 -218 0
-75 -99 0
-75 -121 0
-75 -146 0
-75 -193 0
-75 -218 0
-99 -121 0
-99 -146 0
-99 -193 0
-99 -218 0
-121 -146 0
-121 -193 0
-121 -218 0
-146 -193 0
-146 -218 0
-193 -218 0
-10 -31 0
-10 -54 0
-10 -76 0
-10 -100 0
-10 -122 0
-10 -147 0
-10 -170 0
-10 -194 0
-10 -219 0
-31 -54 0
-31 -76 0
-31 -100 0
-31 -122 0
-31 -147 0
-31 -170 0
-31 -194 0
-31 -219 0
-54 -76 0
-54 -100 0
-54 -122 0
-54 -147 0
-54 -170 0
-54 -194 0
-54 -219 0
-76 -100 0
-76 -122 0
-76 -147 0
-76 -170 0
-76 -194 0
-76 -219 0
-100 -122 0
-100 -147 0
-100 -170 0
-100 -194 0
-100 -219 0
-122 -147 0
-122 -170 0
-122 -194 0
-122 -219 0
-147 -170 0
-147 -194 0
-147 -219 0
-170 -194 0
-170 -219 0
-194 -219 0
-11 -32 0
-11 -55 0
-11 -77 0
-11 -101 0
-11 -123 0
-11 -148 0
-11 -171 0
-11 -195 0
-11 -220 0
-32 -55 0
-32 -77 0
-32 -101 0
-32 -123 0
-32 -148 0
-32 -171 0
-32 -195 0
-32 -220 0
-55 -77 0
-55 -101 0
-55 -123 0
-55 -148 0
-55 -171 0
-55 -195 0
-55 -220 0
-77 -101 0
-77 -123 0
-77 -148 0
-77 -171 0
-77 -195 0
-77 -220 0
-101 -123 0
-101 -148 0
-101 -171 0
-101 -195 0
-101 -220 0
-123 -148 0
-123 -171 0
-123 -195 0
-123 -220 0
-148 -171 0
-148 -195 0
-148 -220 0
-171 -195 0
-171 -220 0
-195 -220 0
-12 -33 0
-12 -56 0
-12 -78 0
-12 -102 0
-12 -124 0
-12 -172 0
-12 -196 0
-12 -221 0
-33 -56 0
-33 -78 0
-33 -102 0
-33 -124 0
-33 -172 0
-33 -196 0
-33 -221 0
-56 -78 0
-56 -102 0
-56 -124 0
-56 -172 0
-56 -196 0
-56 -221 0
-78 -102 0
-78 -124 0
-78 -172 0
-78 -196 0
-78 -221 0
-102 -124 0
-102 -172 0
-102 -196 0
-102 -221 0
-124 -172 0
-124 -196 0
-124 -221 0
-172 -196 0
-172 -221 0
-196 -221 0
-13 -34 0
-13 -79 0
-13 -103 0
-13 -125 0
-13 -149 0
-13 -173 0
-13 -197 0
-13 -222 0
-34 -79 0
-34 -103 0
-34 -125 0
-34 -149 0
-34 -173 0
-34 -197 0
-34 -222 0
-79 -103 0
-79 -125 0
-79 -149 0
-79 -173 0
-79 -197 0
-79 -222 0
-103 -125 0
-103 -149 0
-103 -173 0
-103 -197 0
-103 -222 0
-125 -149 0
-125 -173 0
-125 -197 0
-125 -222 0
-149 -173 0
-149 -197 0
-149 -222 0
-173 -197 0
-173 -222 0
-197 -222 0
-35 -57 0
-35 -80 0
-35 -104 0
-35 -126 0
-35 -150 0
-35 -174 0
-35 -198 0
-35 -223 0
-57 -80 0
-57 -104 0
-57 -126 0
-57 -150 0
-57 -174 0
-57 -198 0
-57 -223 0
-80 -104 0
-80 -126 0
-80 -150 0
-80 -174 0
-80 -198 0
-80 -223 0
-104 -126 0
-104 -150 0
-104 -174 0
-104 -198 0
-104 -223 0
-126 -150 0
-126 -174 0
-126 -198 0
-126 -223 0
-150 -174 0
-150 -198 0
-150 -223 0
-174 -198 0
-174 -223 0
-198 -223 0
-14 -36 0
-14 -58 0
-14 -81 0
-14 -127 0
-14 -151 0
-14 -199 0
-14 -224 0
-36 -58 0
-36 -81 0
-36 -127 0
-36 -151 0
-36 -199 0
-36 -224 0
-58 -81 0
-58 -127 0
-58 -151 0
-58 -199 0
-58 -224 0
-81 -127 0
-81 -151 0
-81 -199 0
-81 -224 0
-127 -151 0
-127 -199 0
-127 -224 0
-151 -199 0
-151 -224 0
-199 -224 0
-15 -37 0
-15 -59 0
-15 -82 0
-15 -105 0
-15 -128 0
-15 -152 0
-15 -175 0
-15 -200 0
-15 -225 0
-37 -59 0
-37 -82 0
-37 -105 0
-37 -128 0
-37 -152 0
-37 -175 0
-37 -200 0
-37 -225 0
-59 -82 0
-59 -105 0
-59 -128 0
-59 -152 0
-59 -175 0
-59 -200 0
-59 -225 0
-82 -105 0
-82 -128 0
-82 -152 0
-82 -175 0
-82 -200 0
-82 -225 0
-105 -128 0
-105 -152 0
-105 -175 0
-105 -200 0
-105 -225 0
-128 -152 0
-128 -175 0
-128 -200 0
-128 -225 0
-152 -175 0
-152 -200 0
-152 -225 0
-175 -200 0
-175 -225 0
-200 -225 0
-16 -38 0
-16 -60 0
-16 -83 0
-16 -106 0
-16 -129 0
-16 -153 0
-16 -176 0
-16 -201 0
-16 -226 0
-38 -60 0
-38 -83 0
-38 -106 0
-38 -129 0
-38 -153 0
-38 -176 0
-38 -201 0
-38 -226 0
-60 -83 0
-60 -106 0
-60 -129 0
-60 -153 0
-60 -176 0
-60 -201 0
-60 -226 0
-83 -106 0
-83 -129 0
-83 -153 0
-83 -176 0
-83 -201 0
-83 -226 0
-106 -129 0
-106 -153 0
-106 -176 0
-106 -201 0
-106 -226 0
-129 -153 0
-129 -176 0
-129 -201 0
-129 -226 0
-153 -176 0
-153 -201 0
-153 -226 0
-176 -201 0
-176 -226 0
-201 -226 0
-17 -39 0
-17 -61 0
-17 -84 0
-17 -107 0
-17 -130 0
-17 -154 0
-17 -177 0
-17 -202 0
-17 -227 0
-39 -61 0
-39 -84 0
-39 -107 0
-39 -130 0
-39 -154 0
-39 -177 0
-39 -202 0
-39 -227 0
-61 -84 0
-61 -107 0
-61 -130 0
-61 -154 0
-61 -177 0
-61 -202 0
-61 -227 0
-84 -107 0
-84 -130 0
-84 -154 0
-84 -177 0
-84 -202 0
-84 -227 0
-107 -130 0
-107 -154 0
-107 -177 0
-107 -202 0
-107 -227 0
-130 -154 0
-130 -177 0
-130 -202 0
-130 -227 0
-154 -177 0
-154 -202 0
-154 -227 0
-177 -202 0
-177 -227 0
-202 -227 0
-18 -40 0
-18 -62 0
-18 -85 0
-18 -108 0
-18 -131 0
-18 -155 0
-18 -178 0
-18 -203 0
-18 -228 0
-40 -62 0
-40 -85 0
-40 -108 0
-40 -131 0
-40 -155 0
-40 -178 0
-40 -203 0
-40 -228 0
-62 -85 0
-62 -108 0
-62 -131 0
-62 -155 0
-62 -178 0
-62 -203 0
-62 -228 0
-85 -108 0
-85 -131 0
-85 -155 0
-85 -178 0
-85 -203 0
-85 -228 0
-108 -131 0
-108 -155 0
-108 -178 0
-108 -203 0
-108 -228 0
-131 -155 0
-131 -178 0
-131 -203 0
-131 -228 0
-155 -178 0
-155 -203 0
-155 -228 0
-178 -203 0
-178 -228 0
-203 -228 0
-19 -41 0
-19 -63 0
-19 -86 0
-19 -109 0
-19 -132 0
-19 -156 0
-19 -179 0
-19 -204 0
-19 -229 0
-41 -63 0
-41 -86 0
-41 -109 0
-41 -132 0
-41 -156 0
-41 -179 0
-41 -204 0
-41 -229 0
-63 -86 0
-63 -109 0
-63 -132 0
-63 -156 0
-63 -179 0
-63 -204 0
-63 -229 0
-86 -109 0
-86 -132 0
-86 -156 0
-86 -179 0
-86 -204 0
-86 -229 0
-109 -132 0
-109 -156 0
-109 -179 0
-109 -204 0
-109 -229 0
-132 -156 0
-132 -179 0
-132 -204 0
-132 -229 0
-156 -179 0
-156 -204 0
-156 -229 0
-179 -204 0
-179 -229 0
-204 -229 0
-20 -42 0
-20 -64 0
-20 -87 0
-20 -110 0
-20 -133 0
-20 -157 0
-20 -180 0
-20 -205 0
-20 -230 0
-42 -64 0
-42 -87 0
-42 -110 0
-42 -133 0
-42 -157 0
-42 -180 0
-42 -205 0
-42 -230 0
-64 -87 0
-64 -110 0
-64 -133 0
-64 -157 0
-64 -180 0
-64 -205 0
-64 -230 0
-87 -110 0
-87 -133 0
-87 -157 0
-87 -180 0
-87 -205 0
-87 -230 0
-110 -133 0
-110 -157 0
-110 -180 0
-110 -205 0
-110 -230 0
-133 -157 0
-133 -180 0
-133 -205 0
-133 -230 0
-157 -180 0
-157 -205 0
-157 -230 0
-180 -205 0
-180 -230 0
-205 -230 0
-21 -43 0
-21 -65 0
-21 -111 0
-21 -134 0
-21 -158 0
-21 -181 0
-21 -206 0
-21 -231 0
-43 -65 0
-43 -111 0
-43 -134 0
-43 -158 0
-43 -181 0
-43 -206 0
-43 -231 0
-65 -111 0
-65 -134 0
-65 -158 0
-65 -181 0
-65 -206 0
-65 -231 0
-111 -134 0
-111 -158 0
-111 -181 0
-111 -206 0
-111 -231 0
-134 -158 0
-134 -181 0
-134 -206 0
-134 -231 0
-158 -181 0
-158 -206 0
-158 -231 0
-181 -206 0
-181 -231 0
-206 -231 0
-22 -44 0
-22 -66 0
-22 -88 0
-22 -112 0
-22 -135 0
-22 -159 0
-22 -182 0
-22 -207 0
-22 -232 0
-44 -66 0
-44 -88 0
-44 -112 0
-44 -135 0
-44 -159 0
-44 -182 0
-44 -207 0
-44 -232 0
-66 -88 0
-66 -112 0
-66 -135 0
-66 -159 0
-66 -182 0
-66 -207 0
-66 -232 0
-88 -112 0
-88 -135 0
-88 -159 0
-88 -182 0
-88 -207 0
-88 -232 0
-112 -135 0
-112 -159 0
-112 -182 0
-112 -207 0
-112 -232 0
-135 -159 0
-135 -182 0
-135 -207 0
-135 -232 0
-159 -182 0
-159 -207 0
-159 -232 0
-182 -207 0
-182 -232 0
-207 -232 0
-23 -45 0
-23 -67 0
-23 -89 0
-23 -113 0
-23 -136 0
-23 -160 0
-23 -183 0
-23 -208 0
-23 -233 0
-45 -67 0
-45 -89 0
-45 -113 0
-45 -136 0
-45 -160 0
-45 -183 0
-45 -208 0
-45 -233 0
-67 -89 0
-67 -113 0
-67 -136 0
-67 -160 0
-67 -183 0
-67 -208 0
-67 -233 0
-89 -113 0
-89 -136 0
-89 -160 0
-89 -183 0
-89 -208 0
-89 -233 0
-113 -136 0
-113 -160 0
-113 -183 0
-113 -208 0
-113 -233 0
-136 -160 0
-136 -183 0
-136 -208 0
-136 -233 0
-160 -183 0
-160 -208 0
-160 -233 0
-183 -208 0
-183 -233 0
-208 -233 0
-24 -46 0
-24 -68 0
-24 -90 0
-24 -114 0
-24 -137 0
-24 -161 0
-24 -184 0
-24 -209 0
-24 -234 0
-46 -68 0
-46 -90 0
-46 -114 0
-46 -137 0
-46 -161 0
-46 -184 0
-46 -209 0
-46 -234 0
-68 -90 0
-68 -114 0
-68 -137 0
-68 -161 0
-68 -184 0
-68 -209 0
-68 -234 0
-90 -114 0
-90 -137 0
-90 -161 0
-90 -184 0
-90 -209 0
-90 -234 0
-114 -137 0
-114 -161 0
-114 -184 0
-114 -209 0
-114 -234 0
-137 -161 0
-137 -184 0
-137 -209 0
-137 -234 0
-161 -184 0
-161 -209 0
-161 -234 0
-184 -209 0
-184 -234 0
-209 -234 0